
mapping with 16 threads...

 0:00:01.06 Mapping INCOV125-AC.extracted.fq.gz to NUC reference...

 0:11:57.42 Generating binary hit matrix.
0:11:57.45 Loading /labs/khatrilab/solomonb/covid/isb/optitype/INCOV125-AC_1.bam started. Number of HLA reads loaded (updated every thousand):
1K...2K...3K...4K...5K...6K...7K...8K...9K...10K...11K...12K...13K...14K...15K...16K...17K...18K...19K...20K...21K...22K...23K...24K...25K...26K...27K...28K...29K...30K...31K...32K...33K...34K...35K...36K...37K...38K...39K...40K...41K...42K...43K...44K...45K...46K...47K...48K...49K...50K...51K...52K...53K...54K...55K...56K...57K...58K...59K...60K...61K...62K...63K...64K...65K...66K...67K...68K...69K...70K...71K...72K...73K...74K...75K...76K...77K...78K...79K...80K...81K...82K...83K...84K...85K...86K...87K...88K...89K...90K...91K...92K...93K...94K...95K...96K...97K...98K...99K...100K...101K...102K...103K...104K...105K...106K...107K...108K...109K...110K...111K...112K...113K...114K...115K...116K...117K...118K...119K...120K...121K...122K...123K...124K...125K...126K...127K...128K...129K...130K...131K...132K...133K...134K...135K...136K...137K...138K...139K...140K...141K...142K...143K...144K...145K...146K...147K...148K...149K...150K...151K...152K...153K...154K...155K...156K...157K...158K...159K...160K...161K...162K...163K...164K...165K...166K...167K...168K...169K...170K...171K...172K...173K...174K...175K...176K...177K...178K...179K...180K...181K...182K...183K...184K...185K...186K...187K...188K...189K...190K...191K...192K...193K...194K...195K...196K...197K...198K...199K...200K...201K...202K...203K...204K...205K...206K...207K...208K...209K...210K...211K...212K...213K...214K...215K...216K...217K...218K...219K...220K...221K...222K...
 0:13:39.89 222080 reads loaded. Creating dataframe...
0:38:44.82 Dataframes created. Shape: 222080 x 7339, hits: 86473994 (86677003), sparsity: 1 in 18.80

 0:40:33.49 temporary pruning of identical rows and columns

 0:40:40.81 Size of mtx with unique rows and columns: (3515, 1874)
0:40:40.81 determining minimal set of non-overshadowed alleles

 0:41:28.85 Keeping only the minimal number of required alleles (930,)

 0:41:30.81 Creating compact model...

starting ilp solver with 1 threads...

 0:45:34.05 Initializing OptiType model...
GLPSOL: GLPK LP/MIP Solver, v4.57
Parameter(s) specified in the command line:
 --write /tmp/tmpR3w771.glpk.raw --wglp /tmp/tmphKFb4C.glpk.glp --cpxlp /tmp/tmpc6A3Z7.pyomo.lp
Reading problem data from '/tmp/tmpc6A3Z7.pyomo.lp'...
/tmp/tmpc6A3Z7.pyomo.lp:200192: warning: lower bound of variable 'x10381' redefined
/tmp/tmpc6A3Z7.pyomo.lp:200192: warning: upper bound of variable 'x10381' redefined
10380 rows, 6116 columns, 157744 non-zeros
3522 integer variables, all of which are binary
203714 lines were read
Writing problem data to '/tmp/tmphKFb4C.glpk.glp'...
192401 lines were written
GLPK Integer Optimizer, v4.57
10380 rows, 6116 columns, 157744 non-zeros
3522 integer variables, all of which are binary
Preprocessing...
2343 hidden covering inequaliti(es) were detected
10373 rows, 6113 columns, 157733 non-zeros
3520 integer variables, all of which are binary
Scaling...
 A: min|aij| =  1.000e+00  max|aij| =  5.000e+00  ratio =  5.000e+00
Problem data seem to be well scaled
Constructing initial basis...
Size of triangular part is 10373
Solving LP relaxation...
GLPK Simplex Optimizer, v4.57
10373 rows, 6113 columns, 157733 non-zeros
      0: obj =  -0.000000000e+00 inf =   3.000e+00 (3)
      3: obj =  -0.000000000e+00 inf =   0.000e+00 (0)
*   500: obj =   1.454782700e+05 inf =   8.771e-15 (2445) 1
*  1000: obj =   1.708749860e+05 inf =   9.326e-15 (2166) 1
*  1500: obj =   1.748716260e+05 inf =   3.020e-14 (1778)
*  2000: obj =   1.753701150e+05 inf =   3.497e-14 (1506)
*  2500: obj =   1.756402510e+05 inf =   4.274e-14 (1324)
*  3000: obj =   1.757826510e+05 inf =   4.385e-14 (1185)
*  3500: obj =   1.762385070e+05 inf =   7.017e-14 (861)
*  4000: obj =   1.765473540e+05 inf =   1.220e-13 (361)
*  4363: obj =   1.767542070e+05 inf =   0.000e+00 (0)
OPTIMAL LP SOLUTION FOUND
Integer optimization begins...
+  4363: mip =     not found yet <=              +inf        (1; 0)
+  4363: >>>>>   1.767542070e+05 <=   1.767542070e+05   0.0% (1; 0)
+  4363: mip =   1.767542070e+05 <=     tree is empty   0.0% (0; 1)
INTEGER OPTIMAL SOLUTION FOUND
Time used:   1.7 secs
Memory used: 31.3 Mb (32809328 bytes)
Writing MIP solution to '/tmp/tmpR3w771.glpk.raw'...
16498 lines were written

 0:45:54.88 Result dataframe has been constructed...
